260
400
320	1
319	2
318	1
317	1
316	3
314	4
313	4
312	5
311	6
310	1
309	2
308	2
307	2
306	2
305	5
304	5
303	5
301	5
300	3
299	1
298	4
297	2
296	2
294	3
293	2
291	7
290	1
289	3
288	2
287	3
286	2
285	3
284	1
283	4
282	2
281	1
280	3
279	1
278	3
277	8
276	3
275	4
274	1
273	4
272	5
271	4
270	8
269	3
268	3
267	3
266	1
265	2
264	3
263	2
261	6
260	3
259	6
258	3
257	1
256	2
255	1
253	3
252	2
251	2
250	2
249	3
248	1
247	2
246	2
245	2
244	4
243	2
242	1
241	3
239	3
238	6
237	4
236	9
235	4
234	3
232	1
230	1
229	2
228	1
227	2
226	4
225	6
224	2
223	1
222	4
221	3
220	4
219	2
218	5
217	3
216	3
215	5
214	1
213	2
212	3
211	3
210	4
209	2
208	3
207	1
206	3
205	4
204	2
203	4
202	1
201	3
200	1
199	2
198	1
197	2
196	3
195	2
194	5
193	2
192	3
191	1
190	6
188	1
187	4
186	4
185	6
184	1
183	5
182	3
181	2
180	2
179	1
178	2
177	2
176	4
175	5
174	7
173	2
172	3
171	1
170	2
169	1
168	5
167	1
166	1
165	3
164	5
163	3
162	2
160	1
159	1
158	5
157	1
156	4
155	1
154	4
153	3
152	5
150	2
149	3
148	1
147	1
146	3
145	3
144	2
143	1
142	4
141	3
140	2
139	4
138	4
137	5
136	1
135	5
134	3
133	5
132	3
131	3
130	1
129	3
127	2
126	1
125	4
123	6
122	1
121	1
120	4
119	2
118	2
117	4
116	2
114	3
113	2
112	2
111	3
110	5
109	2
108	2
106	3
105	1
103	3
101	4
100	2
98	4
97	7
96	5
95	1
94	3
93	2
92	3
91	3
90	4
89	3
88	3
87	5
86	2
85	6
84	3
83	1
82	4
81	5
79	4
78	2
77	2
76	4
75	2
74	2
73	4
72	3
71	2
70	1
69	3
68	2
67	3
66	2
65	3
64	2
63	2
62	2
61	1
60	2
59	4
58	4
57	1
56	3
55	3
54	4
52	1
51	1
50	6
49	1
48	1
47	2
46	6
45	1
44	2
43	4
42	3
41	6
40	3
